certificates/rado_a6_c110_N19.cnf
c Rad2 upper bound instance: x1 + 6*x2 - x3 = 110, interval [1,19]
p cnf 19 96
1 5 19 0
-1 -5 -19 0
2 6 19 0
-2 -6 -19 0
1 3 18 0
-1 -3 -18 0
3 7 19 0
-3 -7 -19 0
2 4 18 0
-2 -4 -18 0
4 8 19 0
-4 -8 -19 0
3 5 18 0
-3 -5 -18 0
5 9 19 0
-5 -9 -19 0
4 6 18 0
-4 -6 -18 0
6 10 19 0
-6 -10 -19 0
5 7 18 0
-5 -7 -18 0
7 11 19 0
-7 -11 -19 0
6 8 18 0
-6 -8 -18 0
8 12 19 0
-8 -12 -19 0
1 9 17 0
-1 -9 -17 0
7 9 18 0
-7 -9 -18 0
9 13 19 0
-9 -13 -19 0
2 10 17 0
-2 -10 -17 0
8 10 18 0
-8 -10 -18 0
10 14 19 0
-10 -14 -19 0
3 11 17 0
-3 -11 -17 0
9 11 18 0
-9 -11 -18 0
11 15 19 0
-11 -15 -19 0
4 12 17 0
-4 -12 -17 0
10 12 18 0
-10 -12 -18 0
12 16 19 0
-12 -16 -19 0
5 13 17 0
-5 -13 -17 0
11 13 18 0
-11 -13 -18 0
13 17 19 0
-13 -17 -19 0
6 14 17 0
-6 -14 -17 0
12 14 18 0
-12 -14 -18 0
14 18 19 0
-14 -18 -19 0
1 15 16 0
-1 -15 -16 0
7 15 17 0
-7 -15 -17 0
13 15 18 0
-13 -15 -18 0
15 19 0
-15 -19 0
2 16 0
-2 -16 0
8 16 17 0
-8 -16 -17 0
14 16 18 0
-14 -16 -18 0
3 16 17 0
-3 -16 -17 0
9 17 0
-9 -17 0
15 17 18 0
-15 -17 -18 0
4 16 18 0
-4 -16 -18 0
10 17 18 0
-10 -17 -18 0
16 18 0
-16 -18 0
5 16 19 0
-5 -16 -19 0
11 17 19 0
-11 -17 -19 0
17 18 19 0
-17 -18 -19 0
