certificates/rado_a6_c110_N19.drat
-18 -19 0
-19 0
15 0
18 0
-16 0
-13 0
-17 0
2 0
12 0
5 0
9 0
0
